50 9964

232
333
292
67
327
288
209
300
457
56
461
133
73
159
308
16
304
373
352
323
277
426
1
170
188
318
318
259
464
173
69
211
421
282
315
202
370
47
469
119
27
352
154
322
355
285
115
146
200
337
